Data path: /scratch/opt/lxu/CFLG/benchmarks/random_B
Instance: r_25_0.4_112.txt
Result path: /scratch/opt/lxu/CFLG/results/random_B
Solver: CPLEX
Time limit: 3600
Formulation: LEFPD
Cover: Large
julia --project=. src/main.jl /scratch/opt/lxu/CFLG/benchmarks/random_B r_25_0.4_112.txt /scratch/opt/lxu/CFLG/results/random_B CPLEX 3600 LEFPD Large
/scratch/opt/lxu/CFLG/benchmarks/random_B CPLEX 3600.0 /scratch/opt/lxu/CFLG/results/random_B r_25_0.4_112.txt LEFPD Large
/scratch/opt/lxu/CFLG/benchmarks/random_B/r_25_0.4_112.txt

 read graph
data loaded

problem_graph/original graph: node: 25/25 edge: 112/112 dlt: 1.2844245833368715 break_avg_len: 0.6422122916684357 break_max_len: 0.9982318395224349elapsed CPU time: 0.041764 seconds
formulation:LEFPD0 112 25

 model loaded

Version identifier: 12.10.0.0 | 2019-11-26 | 843d4de
CPXPARAM_ClockType                               1
CPXPARAM_Threads                                 1
CPXPARAM_TimeLimit                               3599.9582359999999
CPXPARAM_MIP_Tolerances_AbsMIPGap                1
Tried aggregator 2 times.
MIP Presolve eliminated 8101 rows and 112 columns.
MIP Presolve modified 2652 coefficients.
Aggregator did 120 substitutions.
Reduced MIP has 20221 rows, 11260 columns, and 65833 nonzeros.
Reduced MIP has 5682 binaries, 0 generals, 0 SOSs, and 0 indicators.
Presolve time = 0.07 sec. (64.13 ticks)
Found incumbent of value 109.000000 after 0.08 sec. (82.72 ticks)
Probing time = 0.02 sec. (7.12 ticks)
Tried aggregator 1 time.
Detecting symmetries...
Reduced MIP has 20221 rows, 11260 columns, and 65833 nonzeros.
Reduced MIP has 5682 binaries, 0 generals, 0 SOSs, and 0 indicators.
Presolve time = 0.05 sec. (44.04 ticks)
Probing time = 0.01 sec. (6.58 ticks)
Clique table members: 29383.
MIP emphasis: balance optimality and feasibility.
MIP search method: dynamic search.
Parallel mode: none, using 1 thread.
Root relaxation solution time = 1.33 sec. (1523.10 ticks)

        Nodes                                         Cuts/
   Node  Left     Objective  IInf  Best Integer    Best Bound    ItCnt     Gap

*     0+    0                          109.0000        0.0000           100.00%
      0     0        0.7127   380      109.0000        0.7127     7868   99.35%
      0     0        0.7460   380      109.0000      Cuts: 44    10120   99.32%
      0     0        0.7507   380      109.0000   MIRcuts: 35    10832   99.31%
      0     0        0.7539   380      109.0000      Cuts: 85    11179   99.31%
*     0+    0                            5.0000        0.7539            84.92%
*     0+    0                            4.0000        0.7539            81.15%
*     0+    0                            2.0000        0.7539            62.31%
      0     0  -1.00000e+75     0        2.0000        0.7539    11179   62.31%
      0     0        0.7569   380        2.0000      Cuts: 64    11993   62.16%
      0     0        0.7571   380        2.0000      Cuts: 40    12373   62.14%
Detecting symmetries...
      0     0        0.7587   380        2.0000   MIRcuts: 15    12727   62.06%
      0     0        0.7594   380        2.0000   MIRcuts: 15    12909   62.03%
Detecting symmetries...

Repeating presolve.
Tried aggregator 2 times.
MIP Presolve eliminated 9335 rows and 5354 columns.
MIP Presolve modified 330 coefficients.
Aggregator did 11 substitutions.
Reduced MIP has 10875 rows, 5895 columns, and 34664 nonzeros.
Reduced MIP has 2992 binaries, 0 generals, 0 SOSs, and 0 indicators.
Presolve time = 0.06 sec. (55.89 ticks)
Probing fixed 28 vars, tightened 519 bounds.
Probing time = 0.24 sec. (288.93 ticks)
Tried aggregator 1 time.
MIP Presolve eliminated 127 rows and 62 columns.
MIP Presolve modified 486 coefficients.
Reduced MIP has 10748 rows, 5833 columns, and 34287 nonzeros.
Reduced MIP has 2964 binaries, 0 generals, 0 SOSs, and 0 indicators.
Presolve time = 0.02 sec. (17.18 ticks)
Probing time = 0.01 sec. (7.32 ticks)
Tried aggregator 1 time.
Detecting symmetries...
Reduced MIP has 10748 rows, 5833 columns, and 34287 nonzeros.
Reduced MIP has 2964 binaries, 0 generals, 0 SOSs, and 0 indicators.
Presolve time = 0.02 sec. (22.70 ticks)
Represolve time = 0.47 sec. (445.68 ticks)
Probing time = 0.01 sec. (7.32 ticks)
Clique table members: 27142.
MIP emphasis: balance optimality and feasibility.
MIP search method: dynamic search.
Parallel mode: none, using 1 thread.
Root relaxation solution time = 0.62 sec. (746.61 ticks)

        Nodes                                         Cuts/
   Node  Left     Objective  IInf  Best Integer    Best Bound    ItCnt     Gap

*     0+    0                            2.0000        0.7594            62.03%
      0     0        0.7616   461        2.0000        0.7616    19267   61.92%
      0     0        cutoff              2.0000                  20119    0.00%
Elapsed time = 9.30 sec. (10261.90 ticks, tree = 0.01 MB, solutions = 4)
Stat(MathOptInterface.OPTIMAL, 2.0, 2.0, 0.0, 0.041764, 9.333696126937866, 0, Main.CFLG.LEFPD, "", #undef)

Clique cuts applied:  41
Mixed integer rounding cuts applied:  13
Gomory fractional cuts applied:  1

Root node processing (before b&c):
  Real time             =    9.30 sec. (10262.47 ticks)
Sequential b&c:
  Real time             =    0.00 sec. (0.00 ticks)
                          ------------
Total (root+branch&cut) =    9.30 sec. (10262.47 ticks)
